Instance name : DPDPTWUR-R_one_clustering_DPDPTW-R_mitrovic-minic_Rnd6_10h_100_006_slice_5
Authors : 
Date : 
Reference 
Solution
Route 1 : 54 6 110 62 29 15 14 33 70 21 32 77 88 85 41 71 47 16 9 72 22 78 65 89 103 97 
Route 2 : 5 61 30 86 10 66 38 3 59 44 45 101 51 42 23 94 107 24 34 100 90 48 79 98 80 104 
Route 3 : 1 40 26 37 36 27 57 82 93 11 31 96 4 18 67 25 92 60 8 53 2 83 7 109 28 63 84 81 64 58 87 74 
Route 4 : 39 46 95 102 35 17 52 108 73 91 19 75 
Route 5 : 12 49 68 20 105 76 
Route 6 : 43 56 112 99 
Route 7 : 13 69 
Route 8 : 55 111 
Route 9 : 
Route 10 : 
Route 11 : 
Route 12 : 
Route 13 : 
Route 14 : 
Route 15 : 
Route 16 : 
Route 17 : 
Route 18 : 
Route 19 : 
Route 20 : 
Route 21 : 
